networks/zoo_73_267/zoo_73_267.txt
Number of groups: 38
Flow 4: {5 6} {6 43} 
Flow 5: {1 2} {2 32} {32 8} 
Flow 10: {9 23} 
Flow 15: {1 3} {3 29} 
Flow 21: {2 1} {1 5} {5 9} {9 10} {10 47} 
Flow 38: {27 14} {14 51} 
Flow 39: {26 25} {25 19} {19 56} 
Flow 48: {3 30} {30 67} 
Flow 49: {5 16} {16 32} {32 31} {31 68} 
Flow 51: {34 71} 
Flow 55: {6 4} {4 41} 
Flow 60: {6 21} {21 20} {20 11} {11 13} {13 50} 
Flow 74: {8 7} {7 44} 
Flow 75: {8 9} {9 46} 
Flow 80: {8 23} 
Flow 90: {7 5} {5 3} {3 36} {36 73} 
Flow 109: {10 27} {27 26} {26 63} 
Flow 135: {14 10} {10 9} {9 8} {8 32} {32 69} 
Flow 136: {3 34} {34 35} {35 72} 
Flow 143: {12 20} {20 25} {25 62} 
Flow 144: {12 11} 
Flow 146: {13 11} {11 14} {14 27} 
Flow 177: {21 6} {6 5} {5 29} {29 66} 
Flow 183: {22 32} {32 30} {30 3} 
Flow 184: {22 23} {23 8} {8 45} 
Flow 192: {23 10} {10 14} {14 11} {11 20} {20 57} 
Flow 195: {23 9} {9 5} {5 4} {4 28} {28 65} 
Flow 197: {24 20} {20 21} {21 27} {27 64} 
Flow 199: {25 26} {26 27} {27 5} {5 42} 
Flow 209: {25 20} {20 12} {12 49} 
Flow 219: {11 12} 
Flow 223: {27 21} {21 58} 
Flow 224: {27 10} {10 23} {23 60} 
Flow 234: {29 3} {3 40} 
Flow 238: {29 5} {5 27} 
Flow 241: {31 32} {32 16} {16 5} 
Flow 261: {34 3} {3 5} {5 7} {7 8} 
Flow 263: {36 3} 
Time taken running everything: 2 seconds
