networks/zoo_73_267/standard/zoo_73_267.sol
<?xml version = "1.0" encoding="UTF-8" standalone="yes"?>
<CPLEXSolution version="1.2">
 <header
   problemName="networks/zoo_73_267/zoo_73_267.lp"
   solutionName="incumbent"
   solutionIndex="-1"
   objectiveValue="38"
   solutionTypeValue="3"
   solutionTypeString="primal"
   solutionStatusValue="101"
   solutionStatusString="integer optimal solution"
   solutionMethodString="mip"
   primalFeasible="1"
   dualFeasible="1"
   MIPNodes="0"
   MIPIterations="3379"
   writeLevel="3"/>
 <quality
   epInt="1.0000000000000001e-05"
   epRHS="9.9999999999999995e-07"
   maxIntInfeas="0"
   maxPrimalInfeas="2.2204460492503131e-16"
   maxX="4"
   maxSlack="10"/>
 <variables>
  <variable name="Y(4,6)" index="179" value="1"/>
  <variable name="Y(5,32)" index="260" value="1"/>
  <variable name="Y(10,9)" index="530" value="1"/>
  <variable name="Y(15,3)" index="814" value="1"/>
  <variable name="Y(21,10)" index="1169" value="1"/>
  <variable name="Y(38,14)" index="2159" value="1"/>
  <variable name="Y(39,19)" index="2219" value="1"/>
  <variable name="Y(48,30)" index="2752" value="1"/>
  <variable name="Y(49,31)" index="2811" value="1"/>
  <variable name="Y(51,34)" index="2929" value="1"/>
  <variable name="Y(55,4)" index="3135" value="1"/>
  <variable name="Y(60,13)" index="3434" value="1"/>
  <variable name="Y(74,7)" index="4240" value="1"/>
  <variable name="Y(75,9)" index="4300" value="1"/>
  <variable name="Y(80,8)" index="4589" value="1"/>
  <variable name="Y(90,36)" index="5193" value="1"/>
  <variable name="Y(109,26)" index="6286" value="1"/>
  <variable name="Y(135,32)" index="7800" value="1"/>
  <variable name="Y(136,35)" index="7860" value="1"/>
  <variable name="Y(143,25)" index="8257" value="1"/>
  <variable name="Y(144,12)" index="8305" value="1"/>
  <variable name="Y(146,14)" index="8423" value="1"/>
  <variable name="Y(177,29)" index="10233" value="1"/>
  <variable name="Y(183,30)" index="10582" value="1"/>
  <variable name="Y(184,8)" index="10621" value="1"/>
  <variable name="Y(192,20)" index="11094" value="1"/>
  <variable name="Y(195,28)" index="11276" value="1"/>
  <variable name="Y(197,27)" index="11391" value="1"/>
  <variable name="Y(199,5)" index="11488" value="1"/>
  <variable name="Y(209,12)" index="12075" value="1"/>
  <variable name="Y(219,11)" index="12654" value="1"/>
  <variable name="Y(223,21)" index="12893" value="1"/>
  <variable name="Y(224,23)" index="12953" value="1"/>
  <variable name="Y(234,3)" index="13516" value="1"/>
  <variable name="Y(238,5)" index="13750" value="1"/>
  <variable name="Y(241,16)" index="13934" value="1"/>
  <variable name="Y(261,7)" index="15086" value="1"/>
  <variable name="Y(263,36)" index="15227" value="1"/>
  <variable name="X(1,2,5)" index="15490" value="1"/>
  <variable name="X(1,3,15)" index="15767" value="1"/>
  <variable name="X(1,5,21)" index="16040" value="1"/>
  <variable name="X(2,1,21)" index="16307" value="1"/>
  <variable name="X(2,32,5)" index="16558" value="1"/>
  <variable name="X(3,5,261)" index="17081" value="1"/>
  <variable name="X(3,29,15)" index="17102" value="1"/>
  <variable name="X(3,30,48)" index="17402" value="1"/>
  <variable name="X(3,34,136)" index="17757" value="1"/>
  <variable name="X(3,36,90)" index="17978" value="1"/>
  <variable name="X(3,40,234)" index="18389" value="1"/>
  <variable name="X(4,28,195)" index="18617" value="1"/>
  <variable name="X(4,41,55)" index="18744" value="1"/>
  <variable name="X(5,3,90)" index="19046" value="1"/>
  <variable name="X(5,4,195)" index="19418" value="1"/>
  <variable name="X(5,6,4)" index="19494" value="1"/>
  <variable name="X(5,7,261)" index="20018" value="1"/>
  <variable name="X(5,9,21)" index="20045" value="1"/>
  <variable name="X(5,16,49)" index="20340" value="1"/>
  <variable name="X(5,27,238)" index="20796" value="1"/>
  <variable name="X(5,29,177)" index="21002" value="1"/>
  <variable name="X(5,42,199)" index="21291" value="1"/>
  <variable name="X(6,4,55)" index="21414" value="1"/>
  <variable name="X(6,5,177)" index="21803" value="1"/>
  <variable name="X(6,21,60)" index="21953" value="1"/>
  <variable name="X(6,43,4)" index="22164" value="1"/>
  <variable name="X(7,5,90)" index="22517" value="1"/>
  <variable name="X(7,8,261)" index="22955" value="1"/>
  <variable name="X(7,44,74)" index="23035" value="1"/>
  <variable name="X(8,7,74)" index="23302" value="1"/>
  <variable name="X(8,9,75)" index="23570" value="1"/>
  <variable name="X(8,23,80)" index="23842" value="1"/>
  <variable name="X(8,32,135)" index="24164" value="1"/>
  <variable name="X(8,45,184)" index="24480" value="1"/>
  <variable name="X(9,5,195)" index="24758" value="1"/>
  <variable name="X(9,8,135)" index="24965" value="1"/>
  <variable name="X(9,10,21)" index="25118" value="1"/>
  <variable name="X(9,23,10)" index="25374" value="1"/>
  <variable name="X(9,46,75)" index="25706" value="1"/>
  <variable name="X(10,9,135)" index="26033" value="1"/>
  <variable name="X(10,14,192)" index="26357" value="1"/>
  <variable name="X(10,23,224)" index="26656" value="1"/>
  <variable name="X(10,27,109)" index="26808" value="1"/>
  <variable name="X(10,47,21)" index="26987" value="1"/>
  <variable name="X(11,12,219)" index="27452" value="1"/>
  <variable name="X(11,13,60)" index="27560" value="1"/>
  <variable name="X(11,14,146)" index="27913" value="1"/>
  <variable name="X(11,20,192)" index="28226" value="1"/>
  <variable name="X(12,11,144)" index="28445" value="1"/>
  <variable name="X(12,20,143)" index="28711" value="1"/>
  <variable name="X(12,49,209)" index="29044" value="1"/>
  <variable name="X(13,11,146)" index="29248" value="1"/>
  <variable name="X(13,50,60)" index="29429" value="1"/>
  <variable name="X(14,10,135)" index="29771" value="1"/>
  <variable name="X(14,11,192)" index="30095" value="1"/>
  <variable name="X(14,27,146)" index="30316" value="1"/>
  <variable name="X(14,51,38)" index="30475" value="1"/>
  <variable name="X(16,5,241)" index="30945" value="1"/>
  <variable name="X(16,32,49)" index="31020" value="1"/>
  <variable name="X(19,56,39)" index="31277" value="1"/>
  <variable name="X(20,11,60)" index="31565" value="1"/>
  <variable name="X(20,12,209)" index="31981" value="1"/>
  <variable name="X(20,21,197)" index="32236" value="1"/>
  <variable name="X(20,25,143)" index="32449" value="1"/>
  <variable name="X(20,57,192)" index="32765" value="1"/>
  <variable name="X(21,6,177)" index="33017" value="1"/>
  <variable name="X(21,20,60)" index="33167" value="1"/>
  <variable name="X(21,27,197)" index="33571" value="1"/>
  <variable name="X(21,58,223)" index="33864" value="1"/>
  <variable name="X(22,23,184)" index="34092" value="1"/>
  <variable name="X(22,32,183)" index="34358" value="1"/>
  <variable name="X(23,8,184)" index="34626" value="1"/>
  <variable name="X(23,9,195)" index="34904" value="1"/>
  <variable name="X(23,10,192)" index="35168" value="1"/>
  <variable name="X(23,60,224)" index="35467" value="1"/>
  <variable name="X(24,20,197)" index="35707" value="1"/>
  <variable name="X(25,19,39)" index="35816" value="1"/>
  <variable name="X(25,20,209)" index="36253" value="1"/>
  <variable name="X(25,26,199)" index="36510" value="1"/>
  <variable name="X(25,62,143)" index="36721" value="1"/>
  <variable name="X(26,25,39)" index="36884" value="1"/>
  <variable name="X(26,27,199)" index="37311" value="1"/>
  <variable name="X(26,63,109)" index="37488" value="1"/>
  <variable name="X(27,5,199)" index="37845" value="1"/>
  <variable name="X(27,10,224)" index="38137" value="1"/>
  <variable name="X(27,14,38)" index="38218" value="1"/>
  <variable name="X(27,21,223)" index="38670" value="1"/>
  <variable name="X(27,26,109)" index="38823" value="1"/>
  <variable name="X(27,64,197)" index="39178" value="1"/>
  <variable name="X(28,65,195)" index="39443" value="1"/>
  <variable name="X(29,3,234)" index="39749" value="1"/>
  <variable name="X(29,5,238)" index="40020" value="1"/>
  <variable name="X(29,66,177)" index="40226" value="1"/>
  <variable name="X(30,3,183)" index="40499" value="1"/>
  <variable name="X(30,67,48)" index="40631" value="1"/>
  <variable name="X(31,32,241)" index="41091" value="1"/>
  <variable name="X(31,68,49)" index="41166" value="1"/>
  <variable name="X(32,8,5)" index="41389" value="1"/>
  <variable name="X(32,16,241)" index="41892" value="1"/>
  <variable name="X(32,30,183)" index="42101" value="1"/>
  <variable name="X(32,31,49)" index="42234" value="1"/>
  <variable name="X(32,69,135)" index="42587" value="1"/>
  <variable name="X(34,3,261)" index="42980" value="1"/>
  <variable name="X(34,35,136)" index="43122" value="1"/>
  <variable name="X(34,71,51)" index="43304" value="1"/>
  <variable name="X(35,72,136)" index="43656" value="1"/>
  <variable name="X(36,3,263)" index="44050" value="1"/>
  <variable name="X(36,73,90)" index="44144" value="1"/>
  <variable name="C(4,6)" index="44331" value="1"/>
  <variable name="C(5,2)" index="44333" value="1"/>
  <variable name="C(5,32)" index="44334" value="2"/>
  <variable name="C(15,3)" index="44378" value="1"/>
  <variable name="C(21,1)" index="44397" value="1"/>
  <variable name="C(21,5)" index="44398" value="2"/>
  <variable name="C(21,9)" index="44399" value="3.0000000000000004"/>
  <variable name="C(21,10)" index="44400" value="4"/>
  <variable name="C(38,14)" index="44459" value="1"/>
  <variable name="C(39,25)" index="44463" value="1"/>
  <variable name="C(39,19)" index="44464" value="2"/>
  <variable name="C(48,30)" index="44491" value="1"/>
  <variable name="C(49,16)" index="44493" value="1"/>
  <variable name="C(49,32)" index="44494" value="2"/>
  <variable name="C(49,31)" index="44495" value="3"/>
  <variable name="C(55,4)" index="44513" value="1"/>
  <variable name="C(60,21)" index="44529" value="1"/>
  <variable name="C(60,20)" index="44530" value="2"/>
  <variable name="C(60,11)" index="44531" value="3"/>
  <variable name="C(60,13)" index="44532" value="4"/>
  <variable name="C(74,7)" index="44582" value="0.99999999999999978"/>
  <variable name="C(75,9)" index="44584" value="1"/>
  <variable name="C(90,5)" index="44650" value="1"/>
  <variable name="C(90,3)" index="44651" value="2"/>
  <variable name="C(90,36)" index="44652" value="3"/>
  <variable name="C(109,27)" index="44713" value="1"/>
  <variable name="C(109,26)" index="44714" value="2"/>
  <variable name="C(135,10)" index="44821" value="1"/>
  <variable name="C(135,9)" index="44822" value="2"/>
  <variable name="C(135,8)" index="44823" value="3"/>
  <variable name="C(135,32)" index="44824" value="4"/>
  <variable name="C(136,34)" index="44830" value="1"/>
  <variable name="C(136,35)" index="44831" value="2"/>
  <variable name="C(143,20)" index="44862" value="1"/>
  <variable name="C(143,25)" index="44863" value="2"/>
  <variable name="C(146,11)" index="44875" value="1"/>
  <variable name="C(146,14)" index="44876" value="2"/>
  <variable name="C(177,6)" index="44994" value="1"/>
  <variable name="C(177,5)" index="44995" value="2"/>
  <variable name="C(177,29)" index="44996" value="3"/>
  <variable name="C(183,22)" index="45029" value="2"/>
  <variable name="C(183,32)" index="45030" value="3"/>
  <variable name="C(183,30)" index="45031" value="4"/>
  <variable name="C(184,23)" index="45034" value="1"/>
  <variable name="C(184,8)" index="45035" value="2"/>
  <variable name="C(192,10)" index="45062" value="1"/>
  <variable name="C(192,14)" index="45063" value="2"/>
  <variable name="C(192,11)" index="45064" value="3"/>
  <variable name="C(192,20)" index="45065" value="4"/>
  <variable name="C(195,9)" index="45075" value="1"/>
  <variable name="C(195,5)" index="45076" value="2"/>
  <variable name="C(195,4)" index="45077" value="3"/>
  <variable name="C(195,28)" index="45078" value="4"/>
  <variable name="C(197,20)" index="45086" value="1"/>
  <variable name="C(197,21)" index="45087" value="2"/>
  <variable name="C(197,27)" index="45088" value="3"/>
  <variable name="C(199,26)" index="45095" value="1"/>
  <variable name="C(199,27)" index="45096" value="2"/>
  <variable name="C(199,5)" index="45097" value="3"/>
  <variable name="C(209,20)" index="45137" value="1"/>
  <variable name="C(209,12)" index="45138" value="2"/>
  <variable name="C(223,21)" index="45180" value="1"/>
  <variable name="C(224,10)" index="45182" value="1"/>
  <variable name="C(224,23)" index="45183" value="2"/>
  <variable name="C(234,3)" index="45219" value="1"/>
  <variable name="C(238,5)" index="45231" value="1"/>
  <variable name="C(241,32)" index="45241" value="1"/>
  <variable name="C(241,16)" index="45242" value="2"/>
  <variable name="C(261,3)" index="45327" value="1"/>
  <variable name="C(261,5)" index="45328" value="2"/>
  <variable name="C(261,7)" index="45329" value="3"/>
 </variables>
</CPLEXSolution>
